proyfinal/src/viki/013/andrea/andrea-localstore/experimentInOfficeAgust.take6/worker_10/0a766101-a1b0-4f6b-a21e-2a068eb72594.als.cnf.out
Reading from standard input... Use '--help' for help.
============================[ Problem Statistics ]=============================
|                                                                             |
|  Number of variables:         87638                                         |
|  Number of clauses:          161767                                         |
|  Parse time:                   0.03 s                                       |
|                                                                             |
============================[ Search Statistics ]==============================
| Conflicts |          ORIGINAL         |          LEARNT          | Progress |
|           |    Vars  Clauses Literals |    Limit  Clauses Lit/Cl |          |
===============================================================================
|       100 |   63970   110822   276952 |    40634      100     66 | 27.007 % |
|       250 |   63970   110822   276952 |    44698      250     67 | 27.007 % |
|       475 |   53727    80802   202951 |    49168      471     50 | 38.694 % |
|       812 |   53521    80547   202312 |    54084      804     59 | 38.929 % |
|      1318 |   53361    79430   199620 |    59493     1301     61 | 39.112 % |
|      2077 |   53265    79128   198896 |    65442     2044     56 | 39.222 % |
|      3216 |   52387    75740   190676 |    71986     3058     62 | 40.223 % |
|      4924 |   52080    74434   187449 |    79185     4745     56 | 40.574 % |
|      7486 |   51884    73758   185787 |    87104     7276     57 | 40.797 % |
|     11330 |   51284    71626   180561 |    95814     9235     54 | 41.482 % |
|     17096 |   51186    71294   179806 |   105396    14257     55 | 41.594 % |
===============================================================================
restarts              : 72
conflicts             : 20597          (8006 /sec)
decisions             : 65535          (0.00 % random) (25474 /sec)
propagations          : 27278467       (10603442 /sec)
conflict literals     : 1089505        (44.80 % deleted)
Memory used           : 30.97 MB
CPU time              : 2.57261 s

UNSATISFIABLE
